Version identifier: 22.1.0.0 | 2022-03-09 | 1a383f8ce
CPXPARAM_Threads                                 1
CPXPARAM_MIP_Strategy_VariableSelect             3
CPXPARAM_TimeLimit                               590.63601439299998
1 of 1 MIP starts provided solutions.
MIP start 'm1' defined initial solution with objective 392.0000.
Tried aggregator 1 time.
MIP Presolve eliminated 13 rows and 0 columns.
MIP Presolve modified 139 coefficients.
Reduced MIP has 2413 rows, 10400 columns, and 189090 nonzeros.
Reduced MIP has 10400 binaries, 0 generals, 0 SOSs, and 0 indicators.
Presolve time = 0.21 sec. (359.32 ticks)
Probing time = 0.03 sec. (26.35 ticks)
Tried aggregator 1 time.
Detecting symmetries...
MIP Presolve modified 13 coefficients.
Reduced MIP has 2413 rows, 10400 columns, and 189320 nonzeros.
Reduced MIP has 10400 binaries, 0 generals, 0 SOSs, and 0 indicators.
Presolve time = 0.19 sec. (295.72 ticks)
Probing time = 0.03 sec. (26.37 ticks)
Clique table members: 1750.
MIP emphasis: balance optimality and feasibility.
MIP search method: dynamic search.
Parallel mode: none, using 1 thread.
Root relaxation solution time = 10.49 sec. (14211.72 ticks)

        Nodes                                         Cuts/
   Node  Left     Objective  IInf  Best Integer    Best Bound    ItCnt     Gap

*     0+    0                          392.0000    80200.0000              --- 
      0     0      400.0000  1557      392.0000      400.0000    23637    2.04%
Detecting symmetries...
      0     2      400.0000   136      392.0000      400.0000    23637    2.04%
Elapsed time = 30.97 sec. (38279.87 ticks, tree = 0.01 MB, solutions = 1)
      1     3      400.0000   478      392.0000      400.0000    38788    2.04%
      2     4      400.0000   291      392.0000      400.0000    44097    2.04%
      3     5      400.0000   206      392.0000      400.0000    49231    2.04%
      4     6      400.0000   404      392.0000      400.0000    52631    2.04%
      5     7      400.0000   208      392.0000      400.0000    52841    2.04%
      6     8      400.0000   245      392.0000      400.0000    54376    2.04%
      7     9      400.0000   255      392.0000      400.0000    59389    2.04%
      8    10      400.0000  1075      392.0000      400.0000    61997    2.04%
      9    11      400.0000   243      392.0000      400.0000    62017    2.04%
     11    13      400.0000   267      392.0000      400.0000    66361    2.04%
Elapsed time = 48.89 sec. (58201.47 ticks, tree = 0.20 MB, solutions = 1)
     13    15      400.0000   492      392.0000      400.0000    70540    2.04%
     15    17      400.0000   270      392.0000      400.0000    84719    2.04%
     16    18      400.0000   636      392.0000      400.0000    92661    2.04%
     18    20      400.0000   267      392.0000      400.0000    93612    2.04%
     20    22      400.0000   254      392.0000      400.0000    97848    2.04%
     22    24      400.0000   855      392.0000      400.0000   100550    2.04%
     23    25      400.0000   444      392.0000      400.0000   104132    2.04%
     25    27      400.0000   384      392.0000      400.0000   107554    2.04%
     27    29      400.0000   451      392.0000      400.0000   110901    2.04%
     30    32      400.0000  1173      392.0000      400.0000   114042    2.04%
Elapsed time = 68.32 sec. (79083.22 ticks, tree = 0.63 MB, solutions = 1)
     32    34      400.0000   345      392.0000      400.0000   116782    2.04%
     34    36      400.0000   324      392.0000      400.0000   119393    2.04%
     36    38      400.0000   580      392.0000      400.0000   125072    2.04%
     38    40      400.0000   235      392.0000      400.0000   128377    2.04%
     39    41      400.0000   739      392.0000      400.0000   129907    2.04%
     42    44      400.0000   399      392.0000      400.0000   135000    2.04%
     44    46      400.0000   439      392.0000      400.0000   137261    2.04%
     46    48      400.0000   568      392.0000      400.0000   141527    2.04%
     48    50      400.0000   214      392.0000      400.0000   147569    2.04%
     49    51      400.0000   341      392.0000      400.0000   154023    2.04%
Elapsed time = 85.14 sec. (97248.93 ticks, tree = 1.00 MB, solutions = 1)
     50    52      400.0000   306      392.0000      400.0000   157104    2.04%
     51    53      400.0000   424      392.0000      400.0000   161489    2.04%
     53    55      400.0000   324      392.0000      400.0000   165496    2.04%
     55    57      400.0000   328      392.0000      400.0000   169665    2.04%
     57    59      400.0000   376      392.0000      400.0000   175876    2.04%
     58    60      400.0000   313      392.0000      400.0000   177186    2.04%
     59    61      400.0000   320      392.0000      400.0000   180720    2.04%
     61    63      400.0000   297      392.0000      400.0000   183750    2.04%
     62    64      400.0000   401      392.0000      400.0000   186260    2.04%
     64    66      400.0000   281      392.0000      400.0000   192413    2.04%
Elapsed time = 110.59 sec. (124123.85 ticks, tree = 1.27 MB, solutions = 1)
     66    68      400.0000   288      392.0000      400.0000   202383    2.04%
     68    70      400.0000   257      392.0000      400.0000   205204    2.04%
     70    72      400.0000   259      392.0000      400.0000   210300    2.04%
     73    75      400.0000   234      392.0000      400.0000   211977    2.04%
     76    78      400.0000   241      392.0000      400.0000   215861    2.04%
     78    80      400.0000   369      392.0000      400.0000   222015    2.04%
     80    82      400.0000   281      392.0000      400.0000   225563    2.04%
     82    84      400.0000   305      392.0000      400.0000   228441    2.04%
     84    86      400.0000   273      392.0000      400.0000   229992    2.04%
     85    87      400.0000   378      392.0000      400.0000   232726    2.04%
Elapsed time = 137.40 sec. (152513.52 ticks, tree = 1.67 MB, solutions = 1)
     87    89      400.0000   434      392.0000      400.0000   236932    2.04%
     89    91      400.0000   446      392.0000      400.0000   240287    2.04%
     91    93      400.0000   375      392.0000      400.0000   244800    2.04%
     92    94      400.0000   230      392.0000      400.0000   247539    2.04%
     93    95      400.0000   332      392.0000      400.0000   249796    2.04%
     95    97      400.0000   218      392.0000      400.0000   251421    2.04%
     96    98      400.0000   232      392.0000      400.0000   254727    2.04%
     97    99      400.0000   277      392.0000      400.0000   258252    2.04%
     98   100      400.0000   347      392.0000      400.0000   261253    2.04%
     99   101      400.0000   282      392.0000      400.0000   263087    2.04%
Elapsed time = 153.28 sec. (169284.96 ticks, tree = 1.99 MB, solutions = 1)
    101   103      400.0000   567      392.0000      400.0000   265648    2.04%
    103   105      400.0000   268      392.0000      400.0000   266161    2.04%
    104   106      400.0000   270      392.0000      400.0000   269649    2.04%
    106   108      400.0000   373      392.0000      400.0000   274426    2.04%
    107   109      400.0000   301      392.0000      400.0000   278548    2.04%
    108   110      400.0000   312      392.0000      400.0000   281663    2.04%
    110   112      400.0000   943      392.0000      400.0000   283617    2.04%
    112   114      400.0000   634      392.0000      400.0000   286020    2.04%
    114   116      400.0000   480      392.0000      400.0000   287056    2.04%
    116   118      400.0000   479      392.0000      400.0000   288175    2.04%
Elapsed time = 168.24 sec. (185476.43 ticks, tree = 2.40 MB, solutions = 1)
    119   121      400.0000   507      392.0000      400.0000   289902    2.04%
    122   124      400.0000   532      392.0000      400.0000   290405    2.04%
    124   126      400.0000   528      392.0000      400.0000   291730    2.04%
    127   129      400.0000   621      392.0000      400.0000   292979    2.04%
    130   132      400.0000   724      392.0000      400.0000   295577    2.04%
    133   135      400.0000   634      392.0000      400.0000   296624    2.04%
    135   137      400.0000   636      392.0000      400.0000   298305    2.04%
    137   139      400.0000   636      392.0000      400.0000   299428    2.04%
    139   141      400.0000   794      392.0000      400.0000   301595    2.04%
    141   143      400.0000   696      392.0000      400.0000   303249    2.04%
Elapsed time = 179.22 sec. (197905.78 ticks, tree = 2.94 MB, solutions = 1)
    144   146      400.0000   613      392.0000      400.0000   303787    2.04%
    146   148      400.0000   637      392.0000      400.0000   304609    2.04%
    149   151      400.0000   571      392.0000      400.0000   305447    2.04%
    151   153      400.0000   656      392.0000      400.0000   307034    2.04%
    154   156      400.0000   629      392.0000      400.0000   308660    2.04%
    156   158      400.0000   679      392.0000      400.0000   310587    2.04%
    158   160      400.0000   537      392.0000      400.0000   311918    2.04%
    160   162      400.0000   527      392.0000      400.0000   312394    2.04%
    163   165      400.0000   504      392.0000      400.0000   314022    2.04%
    165   167      400.0000   508      392.0000      400.0000   315941    2.04%
Elapsed time = 190.77 sec. (210473.54 ticks, tree = 3.51 MB, solutions = 1)
    167   169      400.0000   600      392.0000      400.0000   317474    2.04%
    169   171      400.0000   503      392.0000      400.0000   319003    2.04%
    172   174      400.0000   564      392.0000      400.0000   321675    2.04%
    175   177      400.0000   536      392.0000      400.0000   323281    2.04%
    177   179      400.0000   641      392.0000      400.0000   326017    2.04%
    180   182      400.0000   499      392.0000      400.0000   327076    2.04%
    182   184      400.0000   508      392.0000      400.0000   328999    2.04%
    185   187      400.0000   573      392.0000      400.0000   331264    2.04%
    187   189      400.0000   504      392.0000      400.0000   332741    2.04%
    198   198      400.0000   426      392.0000      400.0000   338664    2.04%
Elapsed time = 204.92 sec. (225900.60 ticks, tree = 4.20 MB, solutions = 1)
    207   205      400.0000   391      392.0000      400.0000   345567    2.04%
    218   216      400.0000   397      392.0000      400.0000   351848    2.04%
    229   226      399.4364   398      392.0000      400.0000   356959    2.04%
    241   235      400.0000   361      392.0000      400.0000   364273    2.04%
    257   244      400.0000   337      392.0000      400.0000   371603    2.04%
    269   252      400.0000   337      392.0000      400.0000   379404    2.04%
    282   262      400.0000   372      392.0000      400.0000   385732    2.04%
    297   270      399.5000   348      392.0000      400.0000   392751    2.04%
    311   280      399.4110   381      392.0000      400.0000   398163    2.04%
    324   291      400.0000   394      392.0000      400.0000   403890    2.04%
Elapsed time = 244.65 sec. (266042.82 ticks, tree = 6.33 MB, solutions = 1)
    337   302      400.0000   321      392.0000      400.0000   409785    2.04%
    349   309      400.0000   318      392.0000      400.0000   417827    2.04%
    360   318      400.0000   303      392.0000      400.0000   424218    2.04%
    376   330      400.0000   308      392.0000      400.0000   430727    2.04%
    393   339      399.0000   399      392.0000      400.0000   439123    2.04%
    410   349      400.0000   314      392.0000      400.0000   445418    2.04%
    424   360      400.0000   258      392.0000      400.0000   453058    2.04%
    439   369      400.0000   236      392.0000      400.0000   461928    2.04%
    453   380      400.0000   227      392.0000      400.0000   468692    2.04%
    467   393      400.0000   221      392.0000      400.0000   476264    2.04%
Elapsed time = 284.44 sec. (305609.47 ticks, tree = 8.69 MB, solutions = 1)
    481   401      400.0000   245      392.0000      400.0000   483994    2.04%
    498   409      399.0947   261      392.0000      400.0000   491814    2.04%
    514   421      400.0000   221      392.0000      400.0000   499168    2.04%
    530   432      399.0000   242      392.0000      400.0000   506009    2.04%
    549   444      400.0000   219      392.0000      400.0000   514013    2.04%
    566   457      399.3333   287      392.0000      400.0000   523238    2.04%
    584   468      400.0000   220      392.0000      400.0000   533258    2.04%
    605   481      399.0000   261      392.0000      400.0000   542738    2.04%
    632   492      399.0000   249      392.0000      400.0000   551917    2.04%
    656   504      399.0000   244      392.0000      400.0000   560457    2.04%
Elapsed time = 325.04 sec. (344984.28 ticks, tree = 11.23 MB, solutions = 1)
    683   519      399.0000   199      392.0000      400.0000   567527    2.04%
    709   534      399.0000   211      392.0000      400.0000   576027    2.04%
    735   548      396.0000   173      392.0000      400.0000   586289    2.04%
    776   560      396.0000   218      392.0000      400.0000   592220    2.04%
    807   564      399.0000   373      392.0000      400.0000   601050    2.04%
    831   579      398.0000   230      392.0000      400.0000   608233    2.04%
    856   594      398.0000   233      392.0000      400.0000   614880    2.04%
    882   610      398.0000   242      392.0000      400.0000   621620    2.04%
    910   626      398.0000   247      392.0000      400.0000   626820    2.04%
    945   637      398.0000   244      392.0000      400.0000   631277    2.04%
Elapsed time = 366.91 sec. (384244.52 ticks, tree = 14.31 MB, solutions = 1)
    983   646      397.0000   214      392.0000      400.0000   636950    2.04%
   1009   650      398.4118   276      392.0000      400.0000   647057    2.04%
   1028   661      399.0000   177      392.0000      400.0000   657867    2.04%
   1050   674      396.0000   320      392.0000      400.0000   663959    2.04%
   1077   677      396.0000   262      392.0000      400.0000   672415    2.04%
   1102   681      396.0000   245      392.0000      400.0000   680766    2.04%
   1134   681    infeasible            392.0000      400.0000   690929    2.04%
   1164   683    infeasible            392.0000      400.0000   700742    2.04%
   1191   687      396.0000   277      392.0000      400.0000   711243    2.04%
   1216   696      397.0000   295      392.0000      400.0000   719636    2.04%
Elapsed time = 407.43 sec. (423662.73 ticks, tree = 15.64 MB, solutions = 1)
   1242   702    infeasible            392.0000      400.0000   726801    2.04%
   1269   717      399.0000   372      392.0000      400.0000   732435    2.04%
   1290   728      396.8286   285      392.0000      400.0000   740111    2.04%
   1310   739      397.0000   206      392.0000      400.0000   748009    2.04%
   1334   755      397.0000   318      392.0000      400.0000   754236    2.04%
   1361   771      393.0000   207      392.0000      400.0000   760555    2.04%
   1391   783      393.0000   270      392.0000      400.0000   768893    2.04%
   1403   782      399.0000   238      392.0000      400.0000   772013    2.04%
   1404   782      398.6875   185      392.0000      400.0000   772912    2.04%

Performing restart 1

Repeating presolve.
Tried aggregator 1 time.
MIP Presolve eliminated 0 rows and 392 columns.
MIP Presolve modified 15 coefficients.
Reduced MIP has 2413 rows, 10008 columns, and 108608 nonzeros.
Reduced MIP has 10008 binaries, 0 generals, 0 SOSs, and 0 indicators.
Presolve time = 0.07 sec. (62.30 ticks)
Tried aggregator 1 time.
Reduced MIP has 2413 rows, 10008 columns, and 108608 nonzeros.
Reduced MIP has 10008 binaries, 0 generals, 0 SOSs, and 0 indicators.
Presolve time = 0.07 sec. (62.78 ticks)
Represolve time = 0.31 sec. (268.14 ticks)
   1406     2      400.0000    12      392.0000      400.0000   779601    2.04%
Elapsed time = 484.56 sec. (497370.99 ticks, tree = 0.01 MB, solutions = 1)
   1407     3      400.0000   380      392.0000      400.0000   797035    2.04%
   1409     5      400.0000   645      392.0000      400.0000   807372    2.04%
   1412     8      400.0000   648      392.0000      400.0000   811092    2.04%
   1415    11      400.0000   417      392.0000      400.0000   821391    2.04%
   1419    15      400.0000   381      392.0000      400.0000   830248    2.04%
   1422    18      400.0000   393      392.0000      400.0000   838629    2.04%
   1426    22      400.0000   427      392.0000      400.0000   844934    2.04%
   1432    28      400.0000   479      392.0000      400.0000   854842    2.04%
   1441    37      400.0000   456      392.0000      400.0000   871151    2.04%
   1450    46      400.0000   623      392.0000      400.0000   890331    2.04%
Elapsed time = 530.95 sec. (547270.17 ticks, tree = 0.85 MB, solutions = 1)
   1459    55      400.0000   578      392.0000      400.0000   908144    2.04%
   1467    63      400.0000   850      392.0000      400.0000   930900    2.04%
   1477    73      400.0000   723      392.0000      400.0000   949182    2.04%
   1485    81      400.0000   578      392.0000      400.0000   969947    2.04%
   1489    85      400.0000   438      392.0000      400.0000   983621    2.04%
   1495    91      400.0000   398      392.0000      400.0000   991683    2.04%
   1502    98      400.0000   367      392.0000      400.0000   998432    2.04%
Starting limited solution polishing.
   1506   102      400.0000   368      392.0000      400.0000   999580    2.04%
   1514   110      400.0000   378      392.0000      400.0000  1008315    2.04%
   1520   116      400.0000   275      392.0000      400.0000  1019559    2.04%
Elapsed time = 584.42 sec. (599824.17 ticks, tree = 2.45 MB, solutions = 1)
   1526   122      400.0000   572      392.0000      400.0000  1035345    2.04%

Root node processing (before b&c):
  Real time             =   30.47 sec. (37867.42 ticks)
Sequential b&c:
  Real time             =  560.17 sec. (568479.93 ticks)
                          ------------
Total (root+branch&cut) =  590.64 sec. (606347.35 ticks)
Primal:	392
Dual:	400
Status:	Feasible
Time:	590.7
Sequence:
	21
	9
	0
	21
	5
	16
	5
	21
	2
	21
	5
	12
	11
	20
	0
	23
	7
	14
	5
	23
	0
	21
	7
	16
	5
	20
	2
	21
	7
	16
	5
	5
	18
	5
	15
	9
	5
	12
	9
	21
	1
	23
	6
	12
	7
	16
	5
	5
	18
	8
	12
	9
	20
	1
	23
	5
	14
	9
	21
	0
	23
	5
	14
	9
	12
	7
	23
	0
	21
	5
	18
	5
	5
	16
	7
	7
	16
	5
	5
	12
	11
	14
	5
	10
	12
	5
	23
	1
	21
	6
	16
	5
	21
	3
	12
	5
	23
	1
	21
	9
	12
	5
	23
	1
	21
	10
	12
	5
	16
	7
	14
	9
	13
	5
	18
	7
	12
	9
	13
	7
	16
	5
	20
	3
	21
	5
	16
	6
	20
	3
	21
	5
	12
	9
	21
	0
	21
	9
	12
	7
	23
	1
	20
	9
	14
	6
	16
	7
	20
	3
	20
	5
	16
	1
	20
	7
	16
	5
	7
	16
	5
	14
	6
	23
	1
	20
	5
	18
	6
	20
	3
	20
	7
	16
	5
	21
	0
	23
	7
	12
	5
	9
	15
	5
	18
	5
	12
	11
	20
	0
	18
	5
	20
	1
	20
	10
	14
	5
	16
	7
	20
	4
	20
	5
	18
	5
	7
	16
	5
	13
	11
	20
	1
	20
	9
	14
	5
	16
	5
	21
	3
	20
	5
	13
	11
	12
	7
	23
	0
	21
	9
	14
	5
	23
	1
	20
	5
	17
	7
	20
	3
	20
	5
	3
	20
	7
	13
	9
	20
	1
	23
	7
	13
	9
	20
	1
	23
	8
	12
	9
	20
	1
	23
	7
	12
	9
	6
	12
	11
	20
	1
	23
	6
	1
	20
	9
	14
	6
	23
	1
	20
	9
	12
	6
	23
	1
	21
	9
	12
	5
	21
	1
	20
	9
	12
	7
	21
	2
	20
	5
	18
	7
	20
	0
	20
	9
	1
	20
	8
	12
	9
	20
	1
	23
	5
	12
	11
	20
	1
	23
	6
	12
	9
	21
	1
	20
	9
	13
	7
	11
	12
	5
	16
	7
	13
	9
	7
	12
	11
	5
	12
	11
	20
	0
	21
	5
	18
	5
	20
	2
	21
	5
	12
	7
	23
	1
	20
	9
	12
	7
	11
	13
	5
	23
	1
	20
	7
	16
	6
	14
	9
	20
	1
	23
	7
	13
	5
	12
	11
	21
	0
	20
	9
	12
	7
	12
	11
	13
	5
	12
	11
	21
